p tdp 209 388
1 20
1 2
2 21
2 3
3 22
3 4
4 23
4 5
5 24
5 6
6 25
6 7
7 26
7 8
8 27
8 9
9 28
9 10
10 29
10 11
11 30
11 12
12 31
12 13
13 32
13 14
14 33
14 15
15 34
15 16
16 35
16 17
17 36
17 18
18 37
18 19
19 38
20 39
20 21
21 40
21 22
22 41
22 23
23 42
23 24
24 43
24 25
25 44
25 26
26 45
26 27
27 46
27 28
28 47
28 29
29 48
29 30
30 49
30 31
31 50
31 32
32 51
32 33
33 52
33 34
34 53
34 35
35 54
35 36
36 55
36 37
37 56
37 38
38 57
39 58
39 40
40 59
40 41
41 60
41 42
42 61
42 43
43 62
43 44
44 63
44 45
45 64
45 46
46 65
46 47
47 66
47 48
48 67
48 49
49 68
49 50
50 69
50 51
51 70
51 52
52 71
52 53
53 72
53 54
54 73
54 55
55 74
55 56
56 75
56 57
57 76
58 77
58 59
59 78
59 60
60 79
60 61
61 80
61 62
62 81
62 63
63 82
63 64
64 83
64 65
65 84
65 66
66 85
66 67
67 86
67 68
68 87
68 69
69 88
69 70
70 89
70 71
71 90
71 72
72 91
72 73
73 92
73 74
74 93
74 75
75 94
75 76
76 95
77 96
77 78
78 97
78 79
79 98
79 80
80 99
80 81
81 100
81 82
82 101
82 83
83 102
83 84
84 103
84 85
85 104
85 86
86 105
86 87
87 106
87 88
88 107
88 89
89 108
89 90
90 109
90 91
91 110
91 92
92 111
92 93
93 112
93 94
94 113
94 95
95 114
96 115
96 97
97 116
97 98
98 117
98 99
99 118
99 100
100 119
100 101
101 120
101 102
102 121
102 103
103 122
103 104
104 123
104 105
105 124
105 106
106 125
106 107
107 126
107 108
108 127
108 109
109 128
109 110
110 129
110 111
111 130
111 112
112 131
112 113
113 132
113 114
114 133
115 134
115 116
116 135
116 117
117 136
117 118
118 137
118 119
119 138
119 120
120 139
120 121
121 140
121 122
122 141
122 123
123 142
123 124
124 143
124 125
125 144
125 126
126 145
126 127
127 146
127 128
128 147
128 129
129 148
129 130
130 149
130 131
131 150
131 132
132 151
132 133
133 152
134 153
134 135
135 154
135 136
136 155
136 137
137 156
137 138
138 157
138 139
139 158
139 140
140 159
140 141
141 160
141 142
142 161
142 143
143 162
143 144
144 163
144 145
145 164
145 146
146 165
146 147
147 166
147 148
148 167
148 149
149 168
149 150
150 169
150 151
151 170
151 152
152 171
153 172
153 154
154 173
154 155
155 174
155 156
156 175
156 157
157 176
157 158
158 177
158 159
159 178
159 160
160 179
160 161
161 180
161 162
162 181
162 163
163 182
163 164
164 183
164 165
165 184
165 166
166 185
166 167
167 186
167 168
168 187
168 169
169 188
169 170
170 189
170 171
171 190
172 191
172 173
173 192
173 174
174 193
174 175
175 194
175 176
176 195
176 177
177 196
177 178
178 197
178 179
179 198
179 180
180 199
180 181
181 200
181 182
182 201
182 183
183 202
183 184
184 203
184 185
185 204
185 186
186 205
186 187
187 206
187 188
188 207
188 189
189 208
189 190
190 209
191 192
192 193
193 194
194 195
195 196
196 197
197 198
198 199
199 200
200 201
201 202
202 203
203 204
204 205
205 206
206 207
207 208
208 209
